\Problem name: boeing2.mps

Minimize
 OBJECTIV: - 0.075 PBOSORD0 - 0.075 PBOSORD1 - 0.075 PBOSORD2 - 0.075 PBOSORD3
           - 0.075 PBOSORD4 - 0.027 PBOSLGA0 - 0.027 PBOSLGA1 - 0.027 PBOSLGA2
           - 0.027 PBOSLGA3 - 0.053 PBOSCLE0 - 0.053 PBOSCLE1 - 0.053 PBOSCLE2
           - 0.053 PBOSCLE3 - 0.075 PORDBOS0 - 0.075 PORDBOS1 - 0.075 PORDBOS2
           - 0.075 PORDBOS3 - 0.075 PORDBOS4 - 0.068 PORDLGA0 - 0.068 PORDLGA1
           - 0.068 PORDLGA2 - 0.068 PORDLGA3 - 0.035 PORDCLE0 - 0.035 PORDCLE1
           - 0.035 PORDCLE2 - 0.035 PORDCLE3 - 0.027 PLGABOS0 - 0.027 PLGABOS1
           - 0.027 PLGABOS2 - 0.027 PLGABOS3 - 0.027 PLGABOS4 - 0.027 PLGABOS5
           - 0.068 PLGAORD0 - 0.068 PLGAORD1 - 0.068 PLGAORD2 - 0.068 PLGAORD3
           - 0.037 PLGACLE0 - 0.037 PLGACLE1 - 0.037 PLGACLE2 - 0.053 PCLEBOS0
           - 0.053 PCLEBOS1 - 0.053 PCLEBOS2 - 0.053 PCLEBOS3 - 0.053 PCLEBOS4
           - 0.035 PCLEORD0 - 0.035 PCLEORD1 - 0.035 PCLEORD2 - 0.035 PCLEORD3
           - 0.035 PCLEORD4 - 0.037 PCLELGA0 - 0.037 PCLELGA1 - 0.037 PCLELGA2
           - 0.037 PCLELGA3 - 0.75 BBOSORD0 - 0.75 BBOSORD1 - 0.53 BBOSCLE0
           - 0.53 BBOSCLE1 - 0.75 BORDBOS0 - 0.75 CBOSORD0 - 0.75 CBOSORD1
           - 0.75 CBOSORD2 - 0.75 CBOSORD3 - 0.75 CBOSORD4 - 0.53 CBOSCLE0
           - 0.53 CBOSCLE1 - 0.53 CBOSCLE2 - 0.53 CBOSCLE3 - 0.75 CORDBOS0
           - 0.75 CORDBOS1 - 0.75 CORDBOS2 - 0.75 CORDBOS3 - 0.75 CORDBOS4
           - 0.68 CORDLGA0 - 0.68 CORDLGA1 - 0.68 CORDLGA2 - 0.68 CORDLGA3
           - 0.68 CLGAORD0 - 0.68 CLGAORD1 - 0.68 CLGAORD2 - 0.68 CLGAORD3
           - 0.37 CLGACLE0 - 0.37 CLGACLE1 - 0.37 CLGACLE2 - 0.37 CCLELGA0
           - 0.37 CCLELGA1 - 0.37 CCLELGA2 - 0.37 CCLELGA3 + 0.65 GRDTIMO1
           - 0.05 GRDTIMN1 + 0.275 GRDTIMO2 - 0.02889 GRDTIMN2
           - 0.03611 GRDTIMN3 - 0.01333 GRDTIMN4 + 0.01 N1003AC1
           + 0.02 N1003AC2 + 0.03 N1003AC3 + 0.04 N1003AC4 + 4.04337 N1005AC1
           + 1.60964 N1005AC2 + 1.93119 N1005AC3 + 1.34618 N1005AC4
           + 1.1 N1011AC1 + 1.2 N1011AC2 + 1.3 N1011AC3 + 2.34647 N1011AC4
           + 2.36783 N1013AC2 + 1.90292 N1013AC4 + 1.36416 N1015AC2
           + 1.14401 N1015AC4 + 1.64736 N1017AC2 + 1.33312 N1017AC4
           + 2.55381 N1019AC2 + 2.14431 N1019AC4 + 3.12679 N1021AC1
           + 1.18965 N1021AC2 + 1.42472 N1021AC3 + 1.0003 N1021AC4
           + 3.12679 N1002AC1 + 1.18965 N1002AC2 + 1.42472 N1002AC3
           + 1.0003 N1002AC4 + 1.64736 N1004AC2 + 1.33312 N1004AC4
           + 7.17016 N1006AC1 + 2.79929 N1006AC2 + 3.35591 N1006AC3
           + 2.34647 N1006AC4 + 2.36783 N1008AC2 + 1.90292 N1008AC4
           + 3.27428 N1010AC2 + 2.71411 N1010AC4 + 1.36416 N1012AC2
           + 1.14401 N1012AC4 + 2.08463 N1014AC2 + 1.71382 N1014AC4
           + 6.07357 N1100AC2 + 5.06059 N1100AC4 + 5.16712 N1102AC2
           + 4.24939 N1102AC4 + 0.72047 N1200AC2 + 0.5698 N1200AC4
           + 0.72047 N1201AC2 + 0.5698 N1201AC4
Subject To
 REVENUES: 0.075 PBOSORD0 + 0.075 PBOSORD1 + 0.075 PBOSORD2 + 0.075 PBOSORD3
           + 0.075 PBOSORD4 + 0.027 PBOSLGA0 + 0.027 PBOSLGA1 + 0.027 PBOSLGA2
           + 0.027 PBOSLGA3 + 0.053 PBOSCLE0 + 0.053 PBOSCLE1 + 0.053 PBOSCLE2
           + 0.053 PBOSCLE3 + 0.075 PORDBOS0 + 0.075 PORDBOS1 + 0.075 PORDBOS2
           + 0.075 PORDBOS3 + 0.075 PORDBOS4 + 0.068 PORDLGA0 + 0.068 PORDLGA1
           + 0.068 PORDLGA2 + 0.068 PORDLGA3 + 0.035 PORDCLE0 + 0.035 PORDCLE1
           + 0.035 PORDCLE2 + 0.035 PORDCLE3 + 0.027 PLGABOS0 + 0.027 PLGABOS1
           + 0.027 PLGABOS2 + 0.027 PLGABOS3 + 0.027 PLGABOS4 + 0.027 PLGABOS5
           + 0.068 PLGAORD0 + 0.068 PLGAORD1 + 0.068 PLGAORD2 + 0.068 PLGAORD3
           + 0.037 PLGACLE0 + 0.037 PLGACLE1 + 0.037 PLGACLE2 + 0.053 PCLEBOS0
           + 0.053 PCLEBOS1 + 0.053 PCLEBOS2 + 0.053 PCLEBOS3 + 0.053 PCLEBOS4
           + 0.035 PCLEORD0 + 0.035 PCLEORD1 + 0.035 PCLEORD2 + 0.035 PCLEORD3
           + 0.035 PCLEORD4 + 0.037 PCLELGA0 + 0.037 PCLELGA1 + 0.037 PCLELGA2
           + 0.037 PCLELGA3 + 0.75 BBOSORD0 + 0.75 BBOSORD1 + 0.53 BBOSCLE0
           + 0.53 BBOSCLE1 + 0.75 BORDBOS0 + 0.75 CBOSORD0 + 0.75 CBOSORD1
           + 0.75 CBOSORD2 + 0.75 CBOSORD3 + 0.75 CBOSORD4 + 0.53 CBOSCLE0
           + 0.53 CBOSCLE1 + 0.53 CBOSCLE2 + 0.53 CBOSCLE3 + 0.75 CORDBOS0
           + 0.75 CORDBOS1 + 0.75 CORDBOS2 + 0.75 CORDBOS3 + 0.75 CORDBOS4
           + 0.68 CORDLGA0 + 0.68 CORDLGA1 + 0.68 CORDLGA2 + 0.68 CORDLGA3
           + 0.68 CLGAORD0 + 0.68 CLGAORD1 + 0.68 CLGAORD2 + 0.68 CLGAORD3
           + 0.37 CLGACLE0 + 0.37 CLGACLE1 + 0.37 CLGACLE2 + 0.37 CCLELGA0
           + 0.37 CCLELGA1 + 0.37 CCLELGA2 + 0.37 CCLELGA3 >= 0
 ACOCOSTS: 0.65 GRDTIMO1 - 0.05 GRDTIMN1 + 0.275 GRDTIMO2 - 0.02889 GRDTIMN2
           - 0.03611 GRDTIMN3 - 0.01333 GRDTIMN4 + 0.01 N1003AC1
           + 0.02 N1003AC2 + 0.03 N1003AC3 + 0.04 N1003AC4 + 4.04337 N1005AC1
           + 1.60964 N1005AC2 + 1.93119 N1005AC3 + 1.34618 N1005AC4
           + 1.1 N1011AC1 + 1.2 N1011AC2 + 1.3 N1011AC3 + 2.34647 N1011AC4
           + 2.36783 N1013AC2 + 1.90292 N1013AC4 + 1.36416 N1015AC2
           + 1.14401 N1015AC4 + 1.64736 N1017AC2 + 1.33312 N1017AC4
           + 2.55381 N1019AC2 + 2.14431 N1019AC4 + 3.12679 N1021AC1
           + 1.18965 N1021AC2 + 1.42472 N1021AC3 + 1.0003 N1021AC4
           + 3.12679 N1002AC1 + 1.18965 N1002AC2 + 1.42472 N1002AC3
           + 1.0003 N1002AC4 + 1.64736 N1004AC2 + 1.33312 N1004AC4
           + 7.17016 N1006AC1 + 2.79929 N1006AC2 + 3.35591 N1006AC3
           + 2.34647 N1006AC4 + 2.36783 N1008AC2 + 1.90292 N1008AC4
           + 3.27428 N1010AC2 + 2.71411 N1010AC4 + 1.36416 N1012AC2
           + 1.14401 N1012AC4 + 2.08463 N1014AC2 + 1.71382 N1014AC4
           + 6.07357 N1100AC2 + 5.06059 N1100AC4 + 5.16712 N1102AC2
           + 4.24939 N1102AC4 + 0.72047 N1200AC2 + 0.5698 N1200AC4
           + 0.72047 N1201AC2 + 0.5698 N1201AC4 >= 0
 FUELAVAL: 7.98429 N1003AC1 + 2.51914 N1003AC2 + 3.15178 N1003AC3
           + 1.99337 N1003AC4 + 5.83404 N1005AC1 + 1.82258 N1005AC2
           + 2.27351 N1005AC3 + 1.41795 N1005AC4 + 9.91398 N1011AC1
           + 3.07692 N1011AC2 + 3.83055 N1011AC3 + 2.3665 N1011AC4
           + 3.16965 N1013AC2 + 2.4431 N1013AC4 + 1.49045 N1015AC2
           + 1.14359 N1015AC4 + 2.21183 N1017AC2 + 1.73951 N1017AC4
           + 2.7448 N1019AC2 + 2.09214 N1019AC4 + 4.07994 N1021AC1
           + 1.25435 N1021AC2 + 1.55704 N1021AC3 + 0.94855 N1021AC4
           + 4.07994 N1002AC1 + 1.25435 N1002AC2 + 1.55704 N1002AC3
           + 0.94855 N1002AC4 + 2.21183 N1004AC2 + 1.73951 N1004AC4
           + 9.91398 N1006AC1 + 3.07692 N1006AC2 + 3.83055 N1006AC3
           + 2.3665 N1006AC4 + 3.16965 N1008AC2 + 2.4431 N1008AC4
           + 3.70262 N1010AC2 + 2.79573 N1010AC4 + 1.49045 N1012AC2
           + 1.14359 N1012AC4 + 2.44827 N1014AC2 + 1.84718 N1014AC4
           + 6.77953 N1100AC2 + 5.16223 N1100AC4 + 6.24657 N1102AC2
           + 4.8096 N1102AC4 + 0.95782 N1200AC2 + 0.70359 N1200AC4
           + 0.95782 N1201AC2 + 0.70359 N1201AC4 <= 100000
 SYSTDEPT: N1003AC1 + N1003AC2 + N1003AC3 + N1003AC4 + N1005AC1 + N1005AC2
           + N1005AC3 + N1005AC4 + 2 N1011AC1 + 2 N1011AC2 + 2 N1011AC3
           + 2 N1011AC4 + 2 N1013AC2 + 2 N1013AC4 + N1015AC2 + N1015AC4
           + N1017AC2 + N1017AC4 + 2 N1019AC2 + 2 N1019AC4 + N1021AC1
           + N1021AC2 + N1021AC3 + N1021AC4 + N1002AC1 + N1002AC2 + N1002AC3
           + N1002AC4 + N1004AC2 + N1004AC4 + 2 N1006AC1 + 2 N1006AC2
           + 2 N1006AC3 + 2 N1006AC4 + 2 N1008AC2 + 2 N1008AC4 + 3 N1010AC2
           + 3 N1010AC4 + N1012AC2 + N1012AC4 + 2 N1014AC2 + 2 N1014AC4
           + 5 N1100AC2 + 5 N1100AC4 + 4 N1102AC2 + 4 N1102AC4 + N1200AC2
           + N1200AC4 + N1201AC2 + N1201AC4 >= 50
 ACMILES:  0.86441 N1003AC1 + 0.86441 N1003AC2 + 0.86441 N1003AC3
           + 0.86441 N1003AC4 + 0.56156 N1005AC1 + 0.56156 N1005AC2
           + 0.56156 N1005AC3 + 0.56156 N1005AC4 + 0.87605 N1011AC1
           + 0.87605 N1011AC2 + 0.87605 N1011AC3 + 0.87605 N1011AC4
           + 0.91637 N1013AC2 + 0.91637 N1013AC4 + 0.41715 N1015AC2
           + 0.41715 N1015AC4 + 0.7308 N1017AC2 + 0.7308 N1017AC4
           + 0.73165 N1019AC2 + 0.73165 N1019AC4 + 0.3145 N1021AC1
           + 0.3145 N1021AC2 + 0.3145 N1021AC3 + 0.3145 N1021AC4
           + 0.3145 N1002AC1 + 0.3145 N1002AC2 + 0.3145 N1002AC3
           + 0.3145 N1002AC4 + 0.7308 N1004AC2 + 0.7308 N1004AC4
           + 0.87605 N1006AC1 + 0.87605 N1006AC2 + 0.87605 N1006AC3
           + 0.87605 N1006AC4 + 0.91637 N1008AC2 + 0.91637 N1008AC4
           + 0.91722 N1010AC2 + 0.91722 N1010AC4 + 0.41715 N1012AC2
           + 0.41715 N1012AC4 + 0.60273 N1014AC2 + 0.60273 N1014AC4
           + 1.79328 N1100AC2 + 1.79328 N1100AC4 + 1.79242 N1102AC2
           + 1.79242 N1102AC4 + 0.18557 N1200AC2 + 0.18557 N1200AC4
           + 0.18557 N1201AC2 + 0.18557 N1201AC4 >= 0
 ASMILES:  351.81396 N1003AC1 + 113.23743 N1003AC2 + 228.55299 N1005AC1
           + 73.56374 N1005AC2 + 356.55371 N1011AC1 + 114.76299 N1011AC2
           + 120.04449 N1013AC2 + 54.64705 N1015AC2 + 95.73444 N1017AC2
           + 95.8463 N1019AC2 + 128.00075 N1021AC1 + 41.19926 N1021AC2
           + 128.00075 N1002AC1 + 41.19926 N1002AC2 + 95.73444 N1004AC2
           + 356.55371 N1006AC1 + 114.76299 N1006AC2 + 120.04449 N1008AC2
           + 120.15637 N1010AC2 + 54.64705 N1012AC2 + 78.95706 N1014AC2
           + 234.91937 N1100AC2 + 234.80756 N1102AC2 + 24.31007 N1200AC2
           + 24.31007 N1201AC2 >= 0
 PASSNGRS: PBOSORD0 + PBOSORD1 + PBOSORD2 + PBOSORD3 + PBOSORD4 + PBOSLGA0
           + PBOSLGA1 + PBOSLGA2 + PBOSLGA3 + PBOSCLE0 + PBOSCLE1 + PBOSCLE2
           + PBOSCLE3 + PORDBOS0 + PORDBOS1 + PORDBOS2 + PORDBOS3 + PORDBOS4
           + PORDLGA0 + PORDLGA1 + PORDLGA2 + PORDLGA3 + PORDCLE0 + PORDCLE1
           + PORDCLE2 + PORDCLE3 + PLGABOS0 + PLGABOS1 + PLGABOS2 + PLGABOS3
           + PLGABOS4 + PLGABOS5 + PLGAORD0 + PLGAORD1 + PLGAORD2 + PLGAORD3
           + PLGACLE0 + PLGACLE1 + PLGACLE2 + PCLEBOS0 + PCLEBOS1 + PCLEBOS2
           + PCLEBOS3 + PCLEBOS4 + PCLEORD0 + PCLEORD1 + PCLEORD2 + PCLEORD3
           + PCLEORD4 + PCLELGA0 + PCLELGA1 + PCLELGA2 + PCLELGA3 >= 9431
 RPMILES:  0.86441 PBOSORD0 + 0.87605 PBOSORD1 + 0.91637 PBOSORD2
           + 0.91722 PBOSORD3 + 0.87605 PBOSORD4 + 0.18557 PBOSLGA0
           + 0.18557 PBOSLGA1 + 1.60685 PBOSLGA2 + 0.18557 PBOSLGA3
           + 0.56156 PBOSCLE0 + 0.56156 PBOSCLE1 + 0.60273 PBOSCLE2
           + 0.56156 PBOSCLE3 + 0.87605 PORDBOS0 + 0.91637 PORDBOS1
           + 0.91722 PORDBOS2 + 0.87605 PORDBOS3 + 0.91637 PORDBOS4
           + 0.7308 PORDLGA0 + 0.7308 PORDLGA1 + 0.73165 PORDLGA2
           + 0.7308 PORDLGA3 + 0.3145 PORDCLE0 + 0.3145 PORDCLE1
           + 0.3145 PORDCLE2 + 0.3145 PORDCLE3 + 0.18557 PLGABOS0
           + 0.18557 PLGABOS1 + 0.18557 PLGABOS2 + 1.6077 PLGABOS3
           + 0.18557 PLGABOS4 + 0.18557 PLGABOS5 + 0.7308 PLGAORD0
           + 0.7308 PLGAORD1 + 0.73165 PLGAORD2 + 0.73165 PLGAORD3
           + 0.41715 PLGACLE0 + 0.41715 PLGACLE1 + 0.41715 PLGACLE2
           + 0.56156 PCLEBOS0 + 0.60273 PCLEBOS1 + 0.60273 PCLEBOS2
           + 0.56156 PCLEBOS3 + 1.23087 PCLEBOS4 + 0.3145 PCLEORD0
           + 0.3145 PCLEORD1 + 0.3145 PCLEORD2 + 0.3145 PCLEORD3
           + 0.3145 PCLEORD4 + 0.41715 PCLELGA0 + 0.41715 PCLELGA1
           + 0.41715 PCLELGA2 + 1.0453 PCLELGA3 >= 0
 LFRPMASM: - 0.86441 PBOSORD0 - 0.87605 PBOSORD1 - 0.91637 PBOSORD2
           - 0.91722 PBOSORD3 - 0.87605 PBOSORD4 - 0.18557 PBOSLGA0
           - 0.18557 PBOSLGA1 - 1.60685 PBOSLGA2 - 0.18557 PBOSLGA3
           - 0.56156 PBOSCLE0 - 0.56156 PBOSCLE1 - 0.60273 PBOSCLE2
           - 0.56156 PBOSCLE3 - 0.87605 PORDBOS0 - 0.91637 PORDBOS1
           - 0.91722 PORDBOS2 - 0.87605 PORDBOS3 - 0.91637 PORDBOS4
           - 0.7308 PORDLGA0 - 0.7308 PORDLGA1 - 0.73165 PORDLGA2
           - 0.7308 PORDLGA3 - 0.3145 PORDCLE0 - 0.3145 PORDCLE1
           - 0.3145 PORDCLE2 - 0.3145 PORDCLE3 - 0.18557 PLGABOS0
           - 0.18557 PLGABOS1 - 0.18557 PLGABOS2 - 1.6077 PLGABOS3
           - 0.18557 PLGABOS4 - 0.18557 PLGABOS5 - 0.7308 PLGAORD0
           - 0.7308 PLGAORD1 - 0.73165 PLGAORD2 - 0.73165 PLGAORD3
           - 0.41715 PLGACLE0 - 0.41715 PLGACLE1 - 0.41715 PLGACLE2
           - 0.56156 PCLEBOS0 - 0.60273 PCLEBOS1 - 0.60273 PCLEBOS2
           - 0.56156 PCLEBOS3 - 1.23087 PCLEBOS4 - 0.3145 PCLEORD0
           - 0.3145 PCLEORD1 - 0.3145 PCLEORD2 - 0.3145 PCLEORD3
           - 0.3145 PCLEORD4 - 0.41715 PCLELGA0 - 0.41715 PCLELGA1
           - 0.41715 PCLELGA2 - 1.0453 PCLELGA3 + 211.088376 N1003AC1
           + 67.942458 N1003AC2 + 137.131794 N1005AC1 + 44.138244 N1005AC2
           + 213.932226 N1011AC1 + 68.857794 N1011AC2 + 72.026694 N1013AC2
           + 32.78823 N1015AC2 + 57.440664 N1017AC2 + 57.50778 N1019AC2
           + 76.80045 N1021AC1 + 24.719556 N1021AC2 + 76.80045 N1002AC1
           + 24.719556 N1002AC2 + 57.440664 N1004AC2 + 213.932226 N1006AC1
           + 68.857794 N1006AC2 + 72.026694 N1008AC2 + 72.093822 N1010AC2
           + 32.78823 N1012AC2 + 47.374236 N1014AC2 + 140.951622 N1100AC2
           + 140.884536 N1102AC2 + 14.586042 N1200AC2 + 14.586042 N1201AC2 >= 0
 ATONMILE: 25.93224 N1003AC1 + 34.57631 N1003AC3 + 12.96612 N1003AC4
           + 16.84665 N1005AC1 + 22.4622 N1005AC3 + 8.42333 N1005AC4
           + 26.2816 N1011AC1 + 35.04214 N1011AC3 + 13.1408 N1011AC4
           + 13.74556 N1013AC4 + 6.25729 N1015AC4 + 10.96196 N1017AC4
           + 10.97477 N1019AC4 + 9.43495 N1021AC1 + 12.57993 N1021AC3
           + 4.71747 N1021AC4 + 9.43495 N1002AC1 + 12.57993 N1002AC3
           + 4.71747 N1002AC4 + 10.96196 N1004AC4 + 26.2816 N1006AC1
           + 35.04214 N1006AC3 + 13.1408 N1006AC4 + 13.74556 N1008AC4
           + 13.75836 N1010AC4 + 6.25729 N1012AC4 + 9.04089 N1014AC4
           + 26.89915 N1100AC4 + 26.88635 N1102AC4 + 2.7836 N1200AC4
           + 2.7836 N1201AC4 >= 0
 RTONMILE: 0.86441 BBOSORD0 + 0.87605 BBOSORD1 + 0.56156 BBOSCLE0
           + 0.56156 BBOSCLE1 + 0.87605 BORDBOS0 + 0.86441 CBOSORD0
           + 0.87605 CBOSORD1 + 0.91637 CBOSORD2 + 0.91722 CBOSORD3
           + 0.87605 CBOSORD4 + 0.56156 CBOSCLE0 + 0.56156 CBOSCLE1
           + 0.60273 CBOSCLE2 + 0.56156 CBOSCLE3 + 0.87605 CORDBOS0
           + 0.91637 CORDBOS1 + 0.91722 CORDBOS2 + 0.87605 CORDBOS3
           + 0.91637 CORDBOS4 + 0.7308 CORDLGA0 + 0.7308 CORDLGA1
           + 0.73165 CORDLGA2 + 0.7308 CORDLGA3 + 0.7308 CLGAORD0
           + 0.7308 CLGAORD1 + 0.73165 CLGAORD2 + 0.73165 CLGAORD3
           + 0.41715 CLGACLE0 + 0.41715 CLGACLE1 + 0.41715 CLGACLE2
           + 0.41715 CCLELGA0 + 0.41715 CCLELGA1 + 0.41715 CCLELGA2
           + 1.0453 CCLELGA3 >= 0
 LFTNMILE: - 0.86441 BBOSORD0 - 0.87605 BBOSORD1 - 0.56156 BBOSCLE0
           - 0.56156 BBOSCLE1 - 0.87605 BORDBOS0 - 0.86441 CBOSORD0
           - 0.87605 CBOSORD1 - 0.91637 CBOSORD2 - 0.91722 CBOSORD3
           - 0.87605 CBOSORD4 - 0.56156 CBOSCLE0 - 0.56156 CBOSCLE1
           - 0.60273 CBOSCLE2 - 0.56156 CBOSCLE3 - 0.87605 CORDBOS0
           - 0.91637 CORDBOS1 - 0.91722 CORDBOS2 - 0.87605 CORDBOS3
           - 0.91637 CORDBOS4 - 0.7308 CORDLGA0 - 0.7308 CORDLGA1
           - 0.73165 CORDLGA2 - 0.7308 CORDLGA3 - 0.7308 CLGAORD0
           - 0.7308 CLGAORD1 - 0.73165 CLGAORD2 - 0.73165 CLGAORD3
           - 0.41715 CLGACLE0 - 0.41715 CLGACLE1 - 0.41715 CLGACLE2
           - 0.41715 CCLELGA0 - 0.41715 CCLELGA1 - 0.41715 CCLELGA2
           - 1.0453 CCLELGA3 + 12.96612 N1003AC1 + 17.288155 N1003AC3
           + 6.48306 N1003AC4 + 8.423325 N1005AC1 + 11.2311 N1005AC3
           + 4.211665 N1005AC4 + 13.1408 N1011AC1 + 17.52107 N1011AC3
           + 6.5704 N1011AC4 + 6.87278 N1013AC4 + 3.128645 N1015AC4
           + 5.48098 N1017AC4 + 5.487385 N1019AC4 + 4.717475 N1021AC1
           + 6.289965 N1021AC3 + 2.358735 N1021AC4 + 4.717475 N1002AC1
           + 6.289965 N1002AC3 + 2.358735 N1002AC4 + 5.48098 N1004AC4
           + 13.1408 N1006AC1 + 17.52107 N1006AC3 + 6.5704 N1006AC4
           + 6.87278 N1008AC4 + 6.87918 N1010AC4 + 3.128645 N1012AC4
           + 4.520445 N1014AC4 + 13.449575 N1100AC4 + 13.443175 N1102AC4
           + 1.3918 N1200AC4 + 1.3918 N1201AC4 >= 0
 FLAVa1:   GRDTIMO1 + GRDTIMN1 + 2.32729 N1003AC1 + 1000 N1005AC1 + 25 N1011AC1
           + 1.34295 N1021AC1 + 1.34295 N1002AC1 + 3.12813 N1006AC1  = 30
 FLAVa2:   GRDTIMO2 + GRDTIMN2 + 2.10966 N1003AC2 + 2000 N1005AC2 + 25 N1011AC2
           + 2.65943 N1013AC2 + 1.25093 N1015AC2 + 1.85313 N1017AC2
           + 2.30477 N1019AC2 + 1.05384 N1021AC2 + 1.05384 N1002AC2
           + 1.85313 N1004AC2 + 2.58202 N1006AC2 + 2.65943 N1008AC2
           + 3.11107 N1010AC2 + 1.25093 N1012AC2 + 2.05723 N1014AC2
           + 5.69309 N1100AC2 + 5.24145 N1102AC2 + 0.8063 N1200AC2
           + 0.8063 N1201AC2  = 45
 FLAVa3:   GRDTIMN3 + 2.10966 N1003AC3 + 3000 N1005AC3 + 26 N1011AC3
           + 1.05384 N1021AC3 + 1.05384 N1002AC3 + 2.58202 N1006AC3  = 0
 FLAVa4:   GRDTIMN4 + 2.10966 N1003AC4 + 1500 N1005AC4 + 27 N1011AC4
           + 2.65943 N1013AC4 + 1.25093 N1015AC4 + 1.85313 N1017AC4
           + 2.30477 N1019AC4 + 1.05384 N1021AC4 + 1.05384 N1002AC4
           + 1.85313 N1004AC4 + 2.58202 N1006AC4 + 2.65943 N1008AC4
           + 3.11107 N1010AC4 + 1.25093 N1012AC4 + 2.05723 N1014AC4
           + 5.69309 N1100AC4 + 5.24145 N1102AC4 + 0.8063 N1200AC4
           + 0.8063 N1201AC4  = 0
 LF1003S1: - PBOSORD0 + 305 N1003AC1 + 98 N1003AC2 >= 0
 LF1003B1: - BBOSORD0 + 12 N1003AC1 >= 0
 LF1003C1: - CBOSORD0 + 30 N1003AC3 + 11.25 N1003AC4 >= 0
 LF1005S1: - PBOSCLE0 + 305 N1005AC1 + 98 N1005AC2 >= 0
 LF1005B1: - BBOSCLE0 + 12 N1005AC1 >= 0
 LF1005C1: - CBOSCLE0 + 30 N1005AC3 + 11.25 N1005AC4 >= 0
 LF1011S1: - PBOSORD1 - PBOSCLE1 + 305 N1011AC1 + 98 N1011AC2 >= 0
 LF1011S2: - PBOSORD1 - PCLEORD0 + 305 N1011AC1 + 98 N1011AC2 >= 0
 LF1011B1: - BBOSORD1 - BBOSCLE1 + 12 N1011AC1 >= 0
 LF1011B2: - BBOSORD1 + 12 N1011AC1 >= 0
 LF1011C1: - CBOSORD1 - CBOSCLE1 + 30 N1011AC3 + 11.25 N1011AC4 >= 0
 LF1011C2: - CBOSORD1 + 30 N1011AC3 + 11.25 N1011AC4 >= 0
 LF1013S1: - PBOSORD2 - PBOSLGA0 + 98 N1013AC2 >= 0
 LF1013S2: - PBOSORD2 - PLGAORD0 + 98 N1013AC2 >= 0
 LF1013C1: - CBOSORD2 + 11.25 N1013AC4 >= 0
 LF1013C2: - CBOSORD2 - CLGAORD0 + 11.25 N1013AC4 >= 0
 LF1015S1: - PLGACLE0 + 98 N1015AC2 >= 0
 LF1015C1: - CLGACLE0 + 11.25 N1015AC4 >= 0
 LF1017S1: - PLGAORD1 + 98 N1017AC2 >= 0
 LF1017C1: - CLGAORD1 + 11.25 N1017AC4 >= 0
 LF1019S1: - PLGAORD2 - PLGACLE1 + 98 N1019AC2 >= 0
 LF1019S2: - PLGAORD2 - PCLEORD1 + 98 N1019AC2 >= 0
 LF1019C1: - CLGAORD2 - CLGACLE1 + 11.25 N1019AC4 >= 0
 LF1019C2: - CLGAORD2 + 11.25 N1019AC4 >= 0
 LF1021S1: - PCLEORD2 + 305 N1021AC1 + 98 N1021AC2 >= 0
 LF1021B1: 12 N1021AC1 >= 0
 LF1021C1: 30 N1021AC3 + 11.25 N1021AC4 >= 0
 LF1002S1: - PORDCLE0 + 305 N1002AC1 + 98 N1002AC2 >= 0
 LF1002B1: 12 N1002AC1 >= 0
 LF1002C1: 30 N1002AC3 + 11.25 N1002AC4 >= 0
 LF1004S1: - PORDLGA0 + 98 N1004AC2 >= 0
 LF1004C1: - CORDLGA0 + 11.25 N1004AC4 >= 0
 LF1006S1: - PORDBOS0 - PORDCLE1 + 305 N1006AC1 + 98 N1006AC2 >= 0
 LF1006S2: - PORDBOS0 - PCLEBOS0 + 305 N1006AC1 + 98 N1006AC2 >= 0
 LF1006B1: - BORDBOS0 + 12 N1006AC1 >= 0
 LF1006B2: - BORDBOS0 + 12 N1006AC1 >= 0
 LF1006C1: - CORDBOS0 + 30 N1006AC3 + 11.25 N1006AC4 >= 0
 LF1006C2: - CORDBOS0 + 30 N1006AC3 + 11.25 N1006AC4 >= 0
 LF1008S1: - PORDBOS1 - PORDLGA1 + 98 N1008AC2 >= 0
 LF1008S2: - PORDBOS1 - PLGABOS0 + 98 N1008AC2 >= 0
 LF1008C1: - CORDBOS1 - CORDLGA1 + 11.25 N1008AC4 >= 0
 LF1008C2: - CORDBOS1 + 11.25 N1008AC4 >= 0
 LF1010S1: - PORDBOS2 - PORDLGA2 - PORDCLE2 + 98 N1010AC2 >= 0
 LF1010S2: - PORDBOS2 - PORDLGA2 - PCLEBOS1 - PCLELGA0 + 98 N1010AC2 >= 0
 LF1010S3: - PORDBOS2 - PLGABOS1 - PCLEBOS1 + 98 N1010AC2 >= 0
 LF1010C1: - CORDBOS2 - CORDLGA2 + 11.25 N1010AC4 >= 0
 LF1010C2: - CORDBOS2 - CORDLGA2 - CCLELGA0 + 11.25 N1010AC4 >= 0
 LF1010C3: - CORDBOS2 + 11.25 N1010AC4 >= 0
 LF1012S1: - PCLELGA1 + 98 N1012AC2 >= 0
 LF1012C1: - CCLELGA1 + 11.25 N1012AC4 >= 0
 LF1014S1: - PCLEBOS2 - PCLELGA2 + 98 N1014AC2 >= 0
 LF1014S2: - PLGABOS2 - PCLEBOS2 + 98 N1014AC2 >= 0
 LF1014C1: - CCLELGA2 + 11.25 N1014AC4 >= 0
 LF1014C2: 11.25 N1014AC4 >= 0
 LF1100S1: - PBOSORD3 - PBOSLGA1 - PBOSCLE2 + 98 N1100AC2 >= 0
 LF1100S2: - PBOSORD3 - PBOSCLE2 - PLGABOS3 - PLGAORD3 - PLGACLE2 + 98 N1100AC2
           >= 0
 LF1100S3: - PBOSORD3 - PLGABOS3 - PLGAORD3 - PCLEORD3 + 98 N1100AC2 >= 0
 LF1100S4: - PORDBOS3 - PORDCLE3 - PLGABOS3 + 98 N1100AC2 >= 0
 LF1100S5: - PORDBOS3 - PLGABOS3 - PCLEBOS3 + 98 N1100AC2 >= 0
 LF1100C1: - CBOSORD3 - CBOSCLE2 + 11.25 N1100AC4 >= 0
 LF1100C2: - CBOSORD3 - CBOSCLE2 - CLGAORD3 - CLGACLE2 + 11.25 N1100AC4 >= 0
 LF1100C3: - CBOSORD3 - CLGAORD3 + 11.25 N1100AC4 >= 0
 LF1100C4: - CORDBOS3 + 11.25 N1100AC4 >= 0
 LF1100C5: - CORDBOS3 + 11.25 N1100AC4 >= 0
 LF1102S1: - PBOSORD4 - PBOSLGA2 - PBOSCLE3 + 98 N1102AC2 >= 0
 LF1102S2: - PBOSORD4 - PBOSLGA2 - PCLEBOS4 - PCLEORD4 - PCLELGA3 + 98 N1102AC2
           >= 0
 LF1102S3: - PBOSLGA2 - PORDBOS4 - PORDLGA3 - PCLEBOS4 - PCLELGA3 + 98 N1102AC2
           >= 0
 LF1102S4: - PORDBOS4 - PLGABOS4 - PCLEBOS4 + 98 N1102AC2 >= 0
 LF1102C1: - CBOSORD4 - CBOSCLE3 + 11.25 N1102AC4 >= 0
 LF1102C2: - CBOSORD4 - CCLELGA3 + 11.25 N1102AC4 >= 0
 LF1102C3: - CORDBOS4 - CORDLGA3 - CCLELGA3 + 11.25 N1102AC4 >= 0
 LF1102C4: - CORDBOS4 + 11.25 N1102AC4 >= 0
 LF1200S1: - PBOSLGA3 + 98 N1200AC2 >= 0
 LF1200C1: 11.25 N1200AC4 >= 0
 LF1201S1: - PLGABOS5 + 98 N1201AC2 >= 0
 LF1201C1: 11.25 N1201AC4 >= 0
 NOPTCLE0: N1005AC1 + N1005AC2 + N1005AC3 + N1005AC4 + 2 N1011AC1 + 2 N1011AC2
           + 2 N1011AC3 + 2 N1011AC4 + N1015AC2 + N1015AC4 + 2 N1019AC2
           + 2 N1019AC4 + N1021AC1 + N1021AC2 + N1021AC3 + N1021AC4 + N1002AC1
           + N1002AC2 + N1002AC3 + N1002AC4 + 2 N1006AC1 + 2 N1006AC2
           + 2 N1006AC3 + 2 N1006AC4 + 2 N1010AC2 + 2 N1010AC4 + N1012AC2
           + N1012AC4 + N1014AC2 + N1014AC4 + 4 N1100AC2 + 4 N1100AC4
           + 2 N1102AC2 + 2 N1102AC4 >= 24
 CONTBOS1: N1003AC1 + N1005AC1 + N1011AC1 - N1006AC1 >= 0
 CONTBOS2: N1003AC2 + N1005AC2 + N1011AC2 + N1013AC2 - N1006AC2 - N1008AC2
           - N1010AC2 - N1014AC2 + N1200AC2 - N1201AC2 >= 0
 CONTBOS3: N1003AC3 + N1005AC3 + N1011AC3 - N1006AC3 >= 0
 CONTBOS4: N1003AC4 + N1005AC4 + N1011AC4 + N1013AC4 - N1006AC4 - N1008AC4
           - N1010AC4 - N1014AC4 + N1200AC4 - N1201AC4 >= 0
 CONTORD1: - N1003AC1 - N1011AC1 - N1021AC1 + N1002AC1 + N1006AC1 >= 0
 CONTORD2: - N1003AC2 - N1011AC2 - N1013AC2 - N1017AC2 - N1019AC2 - N1021AC2
           + N1002AC2 + N1004AC2 + N1006AC2 + N1008AC2 + N1010AC2 >= 0
 CONTORD3: - N1003AC3 - N1011AC3 - N1021AC3 + N1002AC3 + N1006AC3 >= 0
 CONTORD4: - N1003AC4 - N1011AC4 - N1013AC4 - N1017AC4 - N1019AC4 - N1021AC4
           + N1002AC4 + N1004AC4 + N1006AC4 + N1008AC4 + N1010AC4 >= 0
 CONTLGA2: N1015AC2 + N1017AC2 + N1019AC2 - N1004AC2 - N1012AC2 - N1200AC2
           + N1201AC2 >= 0
 CONTLGA4: N1015AC4 + N1017AC4 + N1019AC4 - N1004AC4 - N1012AC4 - N1200AC4
           + N1201AC4 >= 0
 CONTCLE1: - N1005AC1 + N1021AC1 - N1002AC1 >= 0
 CONTCLE2: - N1005AC2 - N1015AC2 + N1021AC2 - N1002AC2 + N1012AC2 + N1014AC2
           >= 0
 CONTCLE3: - N1005AC3 + N1021AC3 - N1002AC3 >= 0
 CONTCLE4: - N1005AC4 - N1015AC4 + N1021AC4 - N1002AC4 + N1012AC4 + N1014AC4
           >= 0
 DMBOSORD: PBOSORD0 + PBOSORD1 + PBOSORD2 + PBOSORD3 + PBOSORD4 - RgDMBOSORD
            = 302
 DMBOSLGA: PBOSLGA0 + PBOSLGA1 + PBOSLGA2 + PBOSLGA3 - RgDMBOSLGA  = 2352
 DMBOSCLE: PBOSCLE0 + PBOSCLE1 + PBOSCLE2 + PBOSCLE3 - RgDMBOSCLE  = 142
 DMORDBOS: PORDBOS0 + PORDBOS1 + PORDBOS2 + PORDBOS3 + PORDBOS4 - RgDMORDBOS
            = 302
 DMORDLGA: PORDLGA0 + PORDLGA1 + PORDLGA2 + PORDLGA3 - RgDMORDLGA  = 515
 DMORDCLE: PORDCLE0 + PORDCLE1 + PORDCLE2 + PORDCLE3 - RgDMORDCLE  = 619
 DMLGABOS: PLGABOS0 + PLGABOS1 + PLGABOS2 + PLGABOS3 + PLGABOS4 + PLGABOS5
           - RgDMLGABOS  = 2743
 DMLGAORD: PLGAORD0 + PLGAORD1 + PLGAORD2 + PLGAORD3 - RgDMLGAORD  = 712
 DMLGACLE: PLGACLE0 + PLGACLE1 + PLGACLE2 - RgDMLGACLE  = 517
 DMCLEBOS: PCLEBOS0 + PCLEBOS1 + PCLEBOS2 + PCLEBOS3 + PCLEBOS4 - RgDMCLEBOS
            = 131
 DMCLEORD: PCLEORD0 + PCLEORD1 + PCLEORD2 + PCLEORD3 + PCLEORD4 - RgDMCLEORD
            = 712
 DMCLELGA: PCLELGA0 + PCLELGA1 + PCLELGA2 + PCLELGA3 - RgDMCLELGA  = 409
 MSBOSORD: N1003AC1 + N1003AC2 + N1011AC1 + N1011AC2 + N1013AC2 + N1100AC2
           + N1102AC2 >= 3
 MSBOSLGA: N1013AC2 + N1100AC2 + N1102AC2 + N1200AC2 >= 7
 MSBOSCLE: N1005AC1 + N1005AC2 + N1011AC1 + N1011AC2 + N1100AC2 + N1102AC2 >= 1
 MSORDBOS: N1006AC1 + N1006AC2 + N1008AC2 + N1010AC2 + N1100AC2 + N1102AC2 >= 3
 MSORDLGA: N1004AC2 + N1008AC2 + N1010AC2 + N1102AC2 >= 4
 MSORDCLE: N1002AC1 + N1002AC2 + N1006AC1 + N1006AC2 + N1010AC2 + N1100AC2 >= 5
 MSLGABOS: N1008AC2 + N1010AC2 + N1014AC2 + N1100AC2 + N1102AC2 + N1201AC2 >= 7
 MSLGAORD: N1013AC2 + N1017AC2 + N1019AC2 + N1100AC2 >= 5
 MSLGACLE: N1015AC2 + N1019AC2 + N1100AC2 >= 4
 MSCLEBOS: N1006AC1 + N1006AC2 + N1010AC2 + N1014AC2 + N1100AC2 + N1102AC2 >= 1
 MSCLEORD: N1011AC1 + N1011AC2 + N1019AC2 + N1021AC1 + N1021AC2 + N1100AC2
           + N1102AC2 >= 6
 MSCLELGA: N1010AC2 + N1012AC2 + N1014AC2 + N1102AC2 >= 3
 DCBOSORD: BBOSORD0 + BBOSORD1 + CBOSORD0 + CBOSORD1 + CBOSORD2 + CBOSORD3
           + CBOSORD4 - RgDCBOSORD  = 12
 DCBOSCLE: BBOSCLE0 + BBOSCLE1 + CBOSCLE0 + CBOSCLE1 + CBOSCLE2 + CBOSCLE3
           - RgDCBOSCLE  = 16
 DCORDBOS: BORDBOS0 + CORDBOS0 + CORDBOS1 + CORDBOS2 + CORDBOS3 + CORDBOS4
           - RgDCORDBOS  = 24
 DCORDLGA: CORDLGA0 + CORDLGA1 + CORDLGA2 + CORDLGA3 - RgDCORDLGA  = 13
 DCLGAORD: CLGAORD0 + CLGAORD1 + CLGAORD2 + CLGAORD3 - RgDCLGAORD  = 45
 DCLGACLE: CLGACLE0 + CLGACLE1 + CLGACLE2 - RgDCLGACLE  = 16
 DCCLELGA: CCLELGA0 + CCLELGA1 + CCLELGA2 + CCLELGA3 - RgDCCLELGA  = 5
 MCORDBOS: N1006AC3 + N1006AC4 + N1008AC4 + N1010AC4 + N1100AC4 + N1102AC4 >= 1
 MCLGAORD: N1013AC4 + N1017AC4 + N1019AC4 + N1100AC4 >= 2
Bounds
-100 <= GRDTIMN1 <= 0
-90 <= GRDTIMN2 <= 0
-45 <= GRDTIMN3 <= 0
-45 <= GRDTIMN4 <= 0
 0 <= N1003AC1 <= 7
 0 <= N1003AC2 <= 7
 0 <= N1003AC3 <= 2
 0 <= N1003AC4 <= 2
 0 <= N1005AC1 <= 7
 0 <= N1005AC2 <= 7
 0 <= N1005AC3 <= 2
 0 <= N1005AC4 <= 2
 0 <= N1011AC1 <= 7
 0 <= N1011AC2 <= 7
 0 <= N1011AC3 <= 2
 0 <= N1011AC4 <= 2
 0 <= N1013AC2 <= 14
 0 <= N1013AC4 <= 2
 0 <= N1015AC2 <= 7
 0 <= N1015AC4 <= 2
 0 <= N1017AC2 <= 7
 0 <= N1017AC4 <= 2
 0 <= N1019AC2 <= 7
 0 <= N1019AC4 <= 2
 0 <= N1021AC1 <= 7
 0 <= N1021AC2 <= 7
 0 <= N1021AC3 <= 2
 0 <= N1021AC4 <= 2
 0 <= N1002AC1 <= 7
 0 <= N1002AC2 <= 7
 0 <= N1002AC3 <= 2
 0 <= N1002AC4 <= 2
 0 <= N1004AC2 <= 7
 0 <= N1004AC4 <= 2
 0 <= N1006AC1 <= 7
 0 <= N1006AC2 <= 7
 0 <= N1006AC3 <= 2
 0 <= N1006AC4 <= 2
 0 <= N1008AC2 <= 14
 0 <= N1008AC4 <= 2
 0 <= N1010AC2 <= 14
 0 <= N1010AC4 <= 2
 0 <= N1012AC2 <= 7
 0 <= N1012AC4 <= 2
 0 <= N1014AC2 <= 14
 0 <= N1014AC4 <= 2
 0 <= N1100AC2 <= 7
 0 <= N1100AC4 <= 7
 0 <= N1102AC2 <= 7
 0 <= N1102AC4 <= 7
 0 <= N1200AC2 <= 14
 0 <= N1200AC4 <= 7
 0 <= N1201AC2 <= 14
 0 <= N1201AC4 <= 7
-61 <= RgDMBOSORD <= 0
-471 <= RgDMBOSLGA <= 0
-29 <= RgDMBOSCLE <= 0
-61 <= RgDMORDBOS <= 0
-103 <= RgDMORDLGA <= 0
-124 <= RgDMORDCLE <= 0
-549 <= RgDMLGABOS <= 0
-143 <= RgDMLGAORD <= 0
-104 <= RgDMLGACLE <= 0
-27 <= RgDMCLEBOS <= 0
-143 <= RgDMCLEORD <= 0
-82 <= RgDMCLELGA <= 0
-12 <= RgDCBOSORD <= 0
-3.2 <= RgDCBOSCLE <= 0
-4.8 <= RgDCORDBOS <= 0
-2.6 <= RgDCORDLGA <= 0
-9 <= RgDCLGAORD <= 0
-3.2 <= RgDCLGACLE <= 0
-5 <= RgDCCLELGA <= 0
End
